(set-logic QF_NRA)
(declare-fun y1 () Real)
(declare-fun y2 () Real)
(declare-fun y3 () Real)
(declare-fun y4 () Real)
(declare-fun y5 () Real)
(declare-fun y6 () Real)
(assert
(and
(and (<= (/ 218 100) y1) (<= y1 (/ 236 100)))(and (<= 2 y2) (<= y2 (/ 218 100)))(and (<= 2 y3) (<= y3 (/ 218 100)))(and (<= (/ 225 100) y4) (<= y4 (/ 252 100)))(and (<= 2 y5) (<= y5 (/ 252 100)))(and (<= 2 y6) (<= y6 (/ 252 100)))(not (> (* 1 (+ (/ (/ 314159265 100000000) 2) (ite (< (ite (<= 0 (- (+ (- (* (- (* y1 y1)) (* y3 y3)) (* (* y2 y2) (* y5 y5))) (+ (* (* y1 y1) (* y4 y4)) (+ (- (* (* y3 y3) (* y6 y6)) (* (* y4 y4) (* y6 y6))) (* (* y2 y2) (+ (- (* y2 y2)) (+ (* y1 y1) (+ (- (* y3 y3) (* y5 y5)) (+ (* y4 y4) (* y6 y6))))))))))) (- (+ (- (* (- (* y1 y1)) (* y3 y3)) (* (* y2 y2) (* y5 y5))) (+ (* (* y1 y1) (* y4 y4)) (+ (- (* (* y3 y3) (* y6 y6)) (* (* y4 y4) (* y6 y6))) (* (* y2 y2) (+ (- (* y2 y2)) (+ (* y1 y1) (+ (- (* y3 y3) (* y5 y5)) (+ (* y4 y4) (* y6 y6)))))))))) (- (- (+ (- (* (- (* y1 y1)) (* y3 y3)) (* (* y2 y2) (* y5 y5))) (+ (* (* y1 y1) (* y4 y4)) (+ (- (* (* y3 y3) (* y6 y6)) (* (* y4 y4) (* y6 y6))) (* (* y2 y2) (+ (- (* y2 y2)) (+ (* y1 y1) (+ (- (* y3 y3) (* y5 y5)) (+ (* y4 y4) (* y6 y6)))))))))))) (^ (* 4 (* (* y2 y2) (+ (* (* y2 y2) (* (* y5 y5) (+ (- (* y2 y2)) (+ (* y1 y1) (+ (- (* y3 y3) (* y5 y5)) (+ (* y4 y4) (* y6 y6))))))) (+ (* (* y1 y1) (* (* y4 y4) (+ (- (* y2 y2) (* y1 y1)) (+ (* y3 y3) (+ (- (* y5 y5) (* y4 y4)) (* y6 y6)))))) (- (- (- (- (* (* y3 y3) (* (* y6 y6) (+ (* y2 y2) (+ (- (* y1 y1) (* y3 y3)) (+ (* y5 y5) (- (* y4 y4) (* y6 y6))))))) (* (* y1 y1) (* (* y3 y3) (* y5 y5)))) (* (* y2 y2) (* (* y3 y3) (* y4 y4)))) (* (* y2 y2) (* (* y1 y1) (* y6 y6)))) (* (* y5 y5) (* (* y4 y4) (* y6 y6)))))))) (/ 5 10))) (arctan (/ (- (+ (- (* (- (* y1 y1)) (* y3 y3)) (* (* y2 y2) (* y5 y5))) (+ (* (* y1 y1) (* y4 y4)) (+ (- (* (* y3 y3) (* y6 y6)) (* (* y4 y4) (* y6 y6))) (* (* y2 y2) (+ (- (* y2 y2)) (+ (* y1 y1) (+ (- (* y3 y3) (* y5 y5)) (+ (* y4 y4) (* y6 y6)))))))))) (^ (* 4 (* (* y2 y2) (+ (* (* y2 y2) (* (* y5 y5) (+ (- (* y2 y2)) (+ (* y1 y1) (+ (- (* y3 y3) (* y5 y5)) (+ (* y4 y4) (* y6 y6))))))) (+ (* (* y1 y1) (* (* y4 y4) (+ (- (* y2 y2) (* y1 y1)) (+ (* y3 y3) (+ (- (* y5 y5) (* y4 y4)) (* y6 y6)))))) (- (- (- (- (* (* y3 y3) (* (* y6 y6) (+ (* y2 y2) (+ (- (* y1 y1) (* y3 y3)) (+ (* y5 y5) (- (* y4 y4) (* y6 y6))))))) (* (* y1 y1) (* (* y3 y3) (* y5 y5)))) (* (* y2 y2) (* (* y3 y3) (* y4 y4)))) (* (* y2 y2) (* (* y1 y1) (* y6 y6)))) (* (* y5 y5) (* (* y4 y4) (* y6 y6)))))))) (/ 5 10)))) (ite (< 0 (- (+ (- (* (- (* y1 y1)) (* y3 y3)) (* (* y2 y2) (* y5 y5))) (+ (* (* y1 y1) (* y4 y4)) (+ (- (* (* y3 y3) (* y6 y6)) (* (* y4 y4) (* y6 y6))) (* (* y2 y2) (+ (- (* y2 y2)) (+ (* y1 y1) (+ (- (* y3 y3) (* y5 y5)) (+ (* y4 y4) (* y6 y6))))))))))) (- (/ (/ 314159265 100000000) 2) (arctan (/ (^ (* 4 (* (* y2 y2) (+ (* (* y2 y2) (* (* y5 y5) (+ (- (* y2 y2)) (+ (* y1 y1) (+ (- (* y3 y3) (* y5 y5)) (+ (* y4 y4) (* y6 y6))))))) (+ (* (* y1 y1) (* (* y4 y4) (+ (- (* y2 y2) (* y1 y1)) (+ (* y3 y3) (+ (- (* y5 y5) (* y4 y4)) (* y6 y6)))))) (- (- (- (- (* (* y3 y3) (* (* y6 y6) (+ (* y2 y2) (+ (- (* y1 y1) (* y3 y3)) (+ (* y5 y5) (- (* y4 y4) (* y6 y6))))))) (* (* y1 y1) (* (* y3 y3) (* y5 y5)))) (* (* y2 y2) (* (* y3 y3) (* y4 y4)))) (* (* y2 y2) (* (* y1 y1) (* y6 y6)))) (* (* y5 y5) (* (* y4 y4) (* y6 y6)))))))) (/ 5 10)) (- (+ (- (* (- (* y1 y1)) (* y3 y3)) (* (* y2 y2) (* y5 y5))) (+ (* (* y1 y1) (* y4 y4)) (+ (- (* (* y3 y3) (* y6 y6)) (* (* y4 y4) (* y6 y6))) (* (* y2 y2) (+ (- (* y2 y2)) (+ (* y1 y1) (+ (- (* y3 y3) (* y5 y5)) (+ (* y4 y4) (* y6 y6))))))))))))) (ite (< (- (+ (- (* (- (* y1 y1)) (* y3 y3)) (* (* y2 y2) (* y5 y5))) (+ (* (* y1 y1) (* y4 y4)) (+ (- (* (* y3 y3) (* y6 y6)) (* (* y4 y4) (* y6 y6))) (* (* y2 y2) (+ (- (* y2 y2)) (+ (* y1 y1) (+ (- (* y3 y3) (* y5 y5)) (+ (* y4 y4) (* y6 y6)))))))))) 0) (- (- (/ (/ 314159265 100000000) 2)) (arctan (/ (^ (* 4 (* (* y2 y2) (+ (* (* y2 y2) (* (* y5 y5) (+ (- (* y2 y2)) (+ (* y1 y1) (+ (- (* y3 y3) (* y5 y5)) (+ (* y4 y4) (* y6 y6))))))) (+ (* (* y1 y1) (* (* y4 y4) (+ (- (* y2 y2) (* y1 y1)) (+ (* y3 y3) (+ (- (* y5 y5) (* y4 y4)) (* y6 y6)))))) (- (- (- (- (* (* y3 y3) (* (* y6 y6) (+ (* y2 y2) (+ (- (* y1 y1) (* y3 y3)) (+ (* y5 y5) (- (* y4 y4) (* y6 y6))))))) (* (* y1 y1) (* (* y3 y3) (* y5 y5)))) (* (* y2 y2) (* (* y3 y3) (* y4 y4)))) (* (* y2 y2) (* (* y1 y1) (* y6 y6)))) (* (* y5 y5) (* (* y4 y4) (* y6 y6)))))))) (/ 5 10)) (- (+ (- (* (- (* y1 y1)) (* y3 y3)) (* (* y2 y2) (* y5 y5))) (+ (* (* y1 y1) (* y4 y4)) (+ (- (* (* y3 y3) (* y6 y6)) (* (* y4 y4) (* y6 y6))) (* (* y2 y2) (+ (- (* y2 y2)) (+ (* y1 y1) (+ (- (* y3 y3) (* y5 y5)) (+ (* y4 y4) (* y6 y6))))))))))))) (/ 314159265 100000000)))))) (+ (/ 10494 10000) (+ (* (- (/ 297823 1000000)) (- y1 (/ 236 100))) (+ (* (/ 215328 1000000) (- y2 2)) (+ (* (- (/ 0792439 10000000)) (- y3 2)) (+ (* (- (/ 422674 1000000)) (- y4 (/ 225 100))) (+ (* (/ 647416 1000000) (- y5 2)) (* (- (/ 207561 1000000)) (- y6 2)))))))))))
)
(check-sat)
(exit)
